NAME : census.-65680270.tour
COMMENT : Length = -65680270
COMMENT : Found by LKH [Keld Helsgaun] Tue May 25 08:54:33 2021
TYPE : TOUR
DIMENSION : 68
TOUR_SECTION
1
3
50
39
2
40
29
48
45
51
43
41
56
12
28
59
21
23
65
68
53
61
11
26
24
4
22
13
10
16
5
38
44
58
57
55
30
36
19
18
20
46
7
60
15
31
17
42
14
62
25
35
6
49
8
9
47
67
63
32
37
34
52
64
33
27
66
54
-1
EOF
